SPARKNaCl/why3-z3/sparknacl-stream.adb_98_27_overflow_check_1.smt2
;; produced by z3_gnatprove.drv ;;
(set-info :smt-lib-version 2.5)
(set-info :source |VC generated by SPARK 2014|)
(set-info :category industrial)
(set-info :status unknown)
;;; generated by SMT-LIB2 driver
;;; SMT-LIB2 driver: bit-vectors, common part
;;; SMT-LIB2: integer arithmetic
(define-fun __cdiv ((x Int) (y Int)) Int (ite (>= x 0) (div x y) (- (div (- x) y))))
(define-fun __cmod ((x Int) (y Int)) Int (ite (>= x 0) (mod x y) (- (mod (- x) y))))
(declare-datatypes ()
  ((int__ref (int__refqtmk (int__content Int)))))

(declare-datatypes ()
  ((bool__ref (bool__refqtmk (bool__content Bool)))))

;; "length"
(define-fun length ((x Int) (y Int)) Int
  (ite (<= x y) (+ (- y x) 1) 0))

(declare-datatypes ()
  ((t__ref (t__refqtmk (t__content (_ BitVec 32))))))

(declare-sort tinteger_32B 0)

;; "tinteger_32B'int"
(declare-fun tinteger_32Bqtint (tinteger_32B) Int)

;; "tinteger_32B'axiom"
(assert
  (forall ((i tinteger_32B))
    (and
      (<= (- 2147483648) (tinteger_32Bqtint i))
      (<= (tinteger_32Bqtint i) 2147483647))))

;; "in_range"
(define-fun in_range ((x Int)) Bool
  (and (<= (- 2147483648) x) (<= x 2147483647)))

;; "to_rep"
(define-fun to_rep ((x tinteger_32B)) Int
  (tinteger_32Bqtint x))

;; "of_rep"
(declare-fun of_rep (Int) tinteger_32B)

;; "inversion_axiom"
(assert
  (forall ((x tinteger_32B))
    (! (= (of_rep (to_rep x)) x) :pattern ((to_rep x)) )))

;; "range_axiom"
(assert
  (forall ((x tinteger_32B))
    (! (in_range (to_rep x)) :pattern ((to_rep x)) )))

;; "coerce_axiom"
(assert
  (forall ((x Int))
    (! (=> (in_range x) (= (to_rep (of_rep x)) x)) :pattern ((to_rep
                                                               (of_rep x))) )))

;; "in_range"
(define-fun in_range1 ((x Int)) Bool
  (and (<= 0 x) (<= x 2147483647)))

(declare-sort byte 0)

;; "to_rep"
(declare-fun to_rep1 (byte) (_ BitVec 8))

;; "of_rep"
(declare-fun of_rep1 ((_ BitVec 8)) byte)

;; "inversion_axiom"
(assert
  (forall ((x byte)) (! (= (of_rep1 (to_rep1 x)) x) :pattern ((to_rep1 x)) )))

;; "range_axiom"
(assert true)

;; "coerce_axiom"
(assert
  (forall ((x (_ BitVec 8)))
    (! (= (to_rep1 (of_rep1 x)) x) :pattern ((to_rep1 (of_rep1 x))) )))

(declare-sort map1 0)

(declare-datatypes ()
  ((map__ref (map__refqtmk (map__content map1)))))

;; "has_bounds"
(declare-fun has_bounds (map1
  Int
  Int) Bool)

;; "get"
(declare-fun get (map1
  Int) byte)

;; "slide"
(declare-fun slide (map1
  Int
  Int) map1)

;; "slide_eq"
(assert
  (forall ((a map1) (first Int))
    (! (= (slide a first first) a) :pattern ((slide a first first)) )))

;; "slide_def"
(assert
  (forall ((a map1) (old_first Int) (new_first Int))
    (! (and
         (forall ((i Int))
           (! (= (get (slide a old_first new_first) i) (get
                                                         a
                                                         (- i (- new_first old_first)))) :pattern (
           (get
             (slide a old_first new_first)
             i)) ))
         (forall ((new_last Int))
           (! (=>
                (has_bounds a old_first (- new_last (- new_first old_first)))
                (has_bounds (slide a old_first new_first) new_first new_last)) :pattern (
           (has_bounds
             (slide a old_first new_first)
             new_first
             new_last)) ))) :pattern ((slide a old_first new_first)) )))

(declare-datatypes ()
  ((t (tqtmk (rec__first tinteger_32B)(rec__last tinteger_32B)))))

;; "mk"
(declare-fun mk (Int
  Int) t)

;; "mk_def"
(assert
  (forall ((f Int) (l Int))
    (! (=>
         (in_range f)
         (=>
           (in_range l)
           (and
             (= (to_rep (rec__first (mk f l))) f)
             (= (to_rep (rec__last (mk f l))) l)))) :pattern ((mk f l)) )))

;; "dynamic_property"
(define-fun dynamic_property ((range_first Int) (range_last Int) (low Int) (high Int)) Bool
  (and
    (in_range low)
    (and
      (in_range high)
      (=> (<= low high) (and (in_range1 low) (in_range1 high))))))

(declare-datatypes ()
  ((us_t (us_tqtmk (elts map1)(rt t)))))

;; "to_array"
(define-fun to_array ((a us_t)) map1
  (elts a))

;; "of_array"
(define-fun of_array ((a map1) (f Int) (l Int)) us_t
  (us_tqtmk a (mk f l)))

;; "first"
(define-fun first ((a us_t)) Int
  (to_rep (rec__first (rt a))))

;; "last"
(define-fun last ((a us_t)) Int
  (to_rep (rec__last (rt a))))

;; "well_formed"
(define-fun well_formed ((a us_t)) Bool
  (has_bounds
    (elts a)
    (to_rep (rec__first (rt a)))
    (to_rep (rec__last (rt a)))))

(declare-const c__first tinteger_32B)

(declare-const c__last tinteger_32B)

(declare-const m us_t)

(declare-const xor_m Bool)

(declare-const n map1)

(declare-const full_block_count Int)

(declare-const sigma map1)

;; "dynamic_invariant"
(define-fun dynamic_invariant ((temp___expr_256 us_t) (temp___is_init_252 Bool) (temp___skip_constant_253 Bool) (temp___do_toplevel_254 Bool) (temp___do_typ_inv_255 Bool)) Bool
  (and
    (=>
      (not (= temp___skip_constant_253 true))
      (dynamic_property
        0
        2147483647
        (first temp___expr_256)
        (last temp___expr_256)))
    (well_formed temp___expr_256)))

;; "in_range"
(define-fun in_range2 ((x Int)) Bool
  (and (<= (- 2147483648) x) (<= x 2147483647)))

;; "last"
(declare-fun last1 (Int) Int)

;; "dynamic_property"
(define-fun dynamic_property1 ((first_int Int) (last_int Int) (x Int)) Bool
  (and (<= first_int x) (<= x last_int)))

;; "dynamic_invariant"
(define-fun dynamic_invariant1 ((temp___expr_621 Int) (temp___is_init_617 Bool) (temp___skip_constant_618 Bool) (temp___do_toplevel_619 Bool) (temp___do_typ_inv_620 Bool) (Ada___sparknacl__stream__salsa20_xor_local__full_block_count___full_block_count___ Int)) Bool
  (=>
    (or
      (= temp___is_init_617 true)
      (<= 0 (last1
              Ada___sparknacl__stream__salsa20_xor_local__full_block_count___full_block_count___)))
    (dynamic_property1
      0
      (last1
        Ada___sparknacl__stream__salsa20_xor_local__full_block_count___full_block_count___)
      temp___expr_621)))

;; "last__def_axiom"
(assert
  (forall ((Ada___sparknacl__stream__salsa20_xor_local__full_block_count___full_block_count___ Int))
    (! (= (last1
            Ada___sparknacl__stream__salsa20_xor_local__full_block_count___full_block_count___) (* Ada___sparknacl__stream__salsa20_xor_local__full_block_count___full_block_count___ 64)) :pattern (
    (last1
      Ada___sparknacl__stream__salsa20_xor_local__full_block_count___full_block_count___)) )))

;; "in_range"
(define-fun in_range3 ((x Int)) Bool
  (and (<= (- 9223372036854775808) x) (<= x 9223372036854775807)))

;; "in_range"
(define-fun in_range4 ((x Int)) Bool
  (and (<= 0 x) (<= x 9223372036854775807)))

;; "sparknacl__sigma__aggregate_def"
(declare-fun sparknacl__sigma__aggregate_def ((_ BitVec 8)
  (_ BitVec 8)
  (_ BitVec 8)
  (_ BitVec 8)
  (_ BitVec 8)
  (_ BitVec 8)
  (_ BitVec 8)
  (_ BitVec 8)
  (_ BitVec 8)
  (_ BitVec 8)
  (_ BitVec 8)
  (_ BitVec 8)
  (_ BitVec 8)
  (_ BitVec 8)
  (_ BitVec 8)
  (_ BitVec 8)) map1)

;; "temp_____aggregate_def_1441"
(declare-fun temp_____aggregate_def_1441 ((_ BitVec 8)
  Int
  Int) us_t)

;; "temp_____aggregate_def_1462"
(declare-fun temp_____aggregate_def_1462 ((_ BitVec 8)) map1)

;; "sigma__def_axiom"
(assert
  (= sigma (let ((temp___191 (sparknacl__sigma__aggregate_def
                               #x65
                               #x78
                               #x70
                               #x61
                               #x6E
                               #x64
                               #x20
                               #x33
                               #x32
                               #x2D
                               #x62
                               #x79
                               #x74
                               #x65
                               #x20
                               #x6B)))
             (let ((temp___192 temp___191)) temp___192))))

;; "def_axiom"
(assert
  (forall ((temp___172 (_ BitVec 8)) (temp___173 (_ BitVec 8)) (temp___174 (_ BitVec 8)) (temp___175 (_ BitVec 8)) (temp___176 (_ BitVec 8)) (temp___177 (_ BitVec 8)) (temp___178 (_ BitVec 8)) (temp___179 (_ BitVec 8)) (temp___180 (_ BitVec 8)) (temp___181 (_ BitVec 8)) (temp___182 (_ BitVec 8)) (temp___183 (_ BitVec 8)) (temp___184 (_ BitVec 8)) (temp___185 (_ BitVec 8)) (temp___186 (_ BitVec 8)) (temp___187 (_ BitVec 8)))
    (let ((temp___188 (sparknacl__sigma__aggregate_def
                        temp___172
                        temp___173
                        temp___174
                        temp___175
                        temp___176
                        temp___177
                        temp___178
                        temp___179
                        temp___180
                        temp___181
                        temp___182
                        temp___183
                        temp___184
                        temp___185
                        temp___186
                        temp___187)))
      (and
        (and
          (and
            (= (to_rep1 (get temp___188 0)) temp___172)
            (= (to_rep1 (get temp___188 1)) temp___173))
          (and
            (and
              (and
                (and
                  (= (to_rep1 (get temp___188 2)) temp___174)
                  (= (to_rep1 (get temp___188 3)) temp___175))
                (and
                  (= (to_rep1 (get temp___188 4)) temp___176)
                  (= (to_rep1 (get temp___188 5)) temp___177)))
              (and
                (and
                  (= (to_rep1 (get temp___188 6)) temp___178)
                  (= (to_rep1 (get temp___188 7)) temp___179))
                (= (to_rep1 (get temp___188 8)) temp___180)))
            (and
              (and
                (and
                  (= (to_rep1 (get temp___188 9)) temp___181)
                  (= (to_rep1 (get temp___188 10)) temp___182))
                (and
                  (= (to_rep1 (get temp___188 11)) temp___183)
                  (= (to_rep1 (get temp___188 12)) temp___184)))
              (and
                (and
                  (= (to_rep1 (get temp___188 13)) temp___185)
                  (= (to_rep1 (get temp___188 14)) temp___186))
                (= (to_rep1 (get temp___188 15)) temp___187)))))
        (=>
          (and
            (and (and (<= 0 0) (<= 0 15)) (and (<= 0 1) (<= 1 15)))
            (and
              (and
                (and
                  (and (and (<= 0 2) (<= 2 15)) (and (<= 0 3) (<= 3 15)))
                  (and (and (<= 0 4) (<= 4 15)) (and (<= 0 5) (<= 5 15))))
                (and
                  (and (and (<= 0 6) (<= 6 15)) (and (<= 0 7) (<= 7 15)))
                  (and (<= 0 8) (<= 8 15))))
              (and
                (and
                  (and (and (<= 0 9) (<= 9 15)) (and (<= 0 10) (<= 10 15)))
                  (and (and (<= 0 11) (<= 11 15)) (and (<= 0 12) (<= 12 15))))
                (and
                  (and (and (<= 0 13) (<= 13 15)) (and (<= 0 14) (<= 14 15)))
                  (and (<= 0 15) (<= 15 15))))))
          (has_bounds temp___188 0 15))))))

(declare-const c map1)

(declare-const offset Int)

(declare-const final_offset Int)

(declare-const z map1)

(declare-const x map1)

(declare-const u (_ BitVec 32))

(declare-const b Int)

;; "b'unused"
(define-fun bqtunused () int__ref
  (int__refqtmk b))

;; "u'unused"
(define-fun uqtunused () t__ref
  (t__refqtmk u))

;; "x'unused"
(define-fun xqtunused () map__ref
  (map__refqtmk x))

;; "z'unused"
(define-fun zqtunused () map__ref
  (map__refqtmk z))

;; "final_offset'unused"
(define-fun final_offsetqtunused () int__ref
  (int__refqtmk final_offset))

;; "offset'unused"
(define-fun offsetqtunused () int__ref
  (int__refqtmk offset))

;; "c'unused"
(define-fun cqtunused () map__ref
  (map__refqtmk c))

;; "Assume"
(assert (has_bounds sigma 0 15))

(declare-const temp___1601 map1)

;; "H"
(assert (= (to_rep1 (get temp___1601 0)) #x65))

;; "H"
(assert (= (to_rep1 (get temp___1601 1)) #x78))

;; "H"
(assert (= (to_rep1 (get temp___1601 2)) #x70))

;; "H"
(assert (= (to_rep1 (get temp___1601 3)) #x61))

;; "H"
(assert (= (to_rep1 (get temp___1601 4)) #x6E))

;; "H"
(assert (= (to_rep1 (get temp___1601 5)) #x64))

;; "H"
(assert (= (to_rep1 (get temp___1601 6)) #x20))

;; "H"
(assert (= (to_rep1 (get temp___1601 7)) #x33))

;; "H"
(assert (= (to_rep1 (get temp___1601 8)) #x32))

;; "H"
(assert (= (to_rep1 (get temp___1601 9)) #x2D))

;; "H"
(assert (= (to_rep1 (get temp___1601 10)) #x62))

;; "H"
(assert (= (to_rep1 (get temp___1601 11)) #x79))

;; "H"
(assert (= (to_rep1 (get temp___1601 12)) #x74))

;; "H"
(assert (= (to_rep1 (get temp___1601 13)) #x65))

;; "H"
(assert (= (to_rep1 (get temp___1601 14)) #x20))

;; "H"
(assert (= (to_rep1 (get temp___1601 15)) #x6B))

;; "H"
(assert (has_bounds temp___1601 0 15))

;; "H"
(assert
  (= temp___1601 (sparknacl__sigma__aggregate_def
                   #x65
                   #x78
                   #x70
                   #x61
                   #x6E
                   #x64
                   #x20
                   #x33
                   #x32
                   #x2D
                   #x62
                   #x79
                   #x74
                   #x65
                   #x20
                   #x6B)))

;; "sparknacl__sigma__aggregate_def'result'unused"
(define-fun sparknacl__sigma__aggregate_defqtresultqtunused () map1
  temp___1601)

;; "Assume"
(assert (= temp___1601 sigma))

;; "Assume"
(assert
  (and
    (dynamic_property 0 2147483647 (to_rep c__first) (to_rep c__last))
    (well_formed (of_array c (to_rep c__first) (to_rep c__last)))))

;; "Assume"
(assert (dynamic_invariant m true false true true))

;; "Assume"
(assert (has_bounds n 0 7))

;; "Assume"
(assert true)

;; "Assume"
(assert
  (and
    (and
      (and (= (first m) 0) (= (to_rep c__first) 0))
      (=> (= xor_m true) (= (to_rep c__last) (last m))))
    (=> (not (= xor_m true)) (= (last m) 0))))

(declare-const o Int)

;; "Ensures"
(assert (= (to_rep c__last) o))

;; "to_rep'result'unused"
(define-fun to_repqtresultqtunused () Int
  o)

(declare-const o1 Int)

;; "Ensures"
(assert (= (to_rep c__first) o1))

;; "to_rep'result'unused"
(define-fun to_repqtresultqtunused1 () Int
  o1)

;; "map__content'result'unused"
(define-fun map__contentqtresultqtunused () map1
  c)

;; "of_array'result'unused"
(define-fun of_arrayqtresultqtunused () us_t
  (of_array c o1 o))

(declare-const o2 Int)

;; "Ensures"
(assert (= (to_rep c__last) o2))

;; "to_rep'result'unused"
(define-fun to_repqtresultqtunused2 () Int
  o2)

;; "o"
(define-fun o3 () Int
  (__cdiv o2 64))

;; "div_'result'unused"
(define-fun div_qtresultqtunused () Int
  o3)

;; "ada___sparknacl__stream__salsa20_xor_local__full_block_count__assume'unused"
(define-fun ada___sparknacl__stream__salsa20_xor_local__full_block_count__assumeqtunused 
  () Int
  o3)

;; "Ensures"
(assert (in_range2 o3))

;; "range_check_'result'unused"
(define-fun range_check_qtresultqtunused () Int
  o3)

;; "Assume"
(assert (= o3 full_block_count))

;; "Assume"
(assert (in_range2 full_block_count))

;; "Assume"
(assert true)

;; "Assume"
(assert (dynamic_invariant1 offset false false true true full_block_count))

;; "Assume"
(assert true)

;; "Assume"
(assert (in_range2 final_offset))

;; "Assume"
(assert true)

;; "Assume"
(assert (has_bounds z 0 15))

;; "Assume"
(assert true)

;; "Assume"
(assert (has_bounds x 0 63))

;; "Assume"
(assert true)

;; "Assume"
(assert true)

;; "Assume"
(assert true)

;; "Assume"
(assert (in_range4 b))

(declare-const o4 Int)

;; "Ensures"
(assert (= (to_rep c__last) o4))

;; "to_rep'result'unused"
(define-fun to_repqtresultqtunused3 () Int
  o4)

(declare-const o5 Int)

;; "Ensures"
(assert (= (to_rep c__first) o5))

;; "to_rep'result'unused"
(define-fun to_repqtresultqtunused4 () Int
  o5)

;; "map__content'result'unused"
(define-fun map__contentqtresultqtunused1 () map1
  c)

;; "of_array'result'unused"
(define-fun of_arrayqtresultqtunused1 () us_t
  (of_array c o5 o4))

(declare-const o6 Int)

;; "Ensures"
(assert (= (to_rep c__last) o6))

;; "to_rep'result'unused"
(define-fun to_repqtresultqtunused5 () Int
  o6)

(declare-const o7 Int)

;; "Ensures"
(assert (= (to_rep c__first) o7))

;; "to_rep'result'unused"
(define-fun to_repqtresultqtunused6 () Int
  o7)

;; "o"
(define-fun o8 () Int
  (length o7 o6))

;; "length'result'unused"
(define-fun lengthqtresultqtunused () Int
  o8)

;; "Ensures"
(assert (in_range3 o8))

;; "range_check_'result'unused"
(define-fun range_check_qtresultqtunused1 () Int
  o8)

(declare-const b1 Int)

;; "b'unused"
(define-fun bqtunused1 () int__ref
  (int__refqtmk b1))

;; "H"
(assert (= b1 o8))

(declare-const o9 Int)

;; "Ensures"
(assert (= (to_rep c__last) o9))

;; "to_rep'result'unused"
(define-fun to_repqtresultqtunused7 () Int
  o9)

(declare-const o10 Int)

;; "Ensures"
(assert (= (to_rep c__first) o10))

;; "to_rep'result'unused"
(define-fun to_repqtresultqtunused8 () Int
  o10)

(declare-const temp___1449 us_t)

;; "H"
(assert (= (first temp___1449) o10))

;; "H"
(assert (= (last temp___1449) o9))

;; "H"
(assert true)

;; "H"
(assert (well_formed temp___1449))

;; "H"
(assert
  (forall ((temp___1444 Int))
    (! (=>
         (and
           (<= (first temp___1449) temp___1444)
           (<= temp___1444 (last temp___1449)))
         (= (to_rep1 (get (to_array temp___1449) temp___1444)) #x00)) :pattern (
    (get
      (to_array temp___1449)
      temp___1444)) )))

;; "H"
(assert (= temp___1449 (temp_____aggregate_def_1441 #x00 o10 o9)))

;; "temp_____aggregate_def_1441'result'unused"
(define-fun temp_____aggregate_def_1441qtresultqtunused () us_t
  temp___1449)

;; "temp___1450"
(define-fun temp___1450 () map1
  (to_array temp___1449))

;; "to_array'result'unused"
(define-fun to_arrayqtresultqtunused () map1
  temp___1450)

;; "o"
(define-fun o11 () Int
  (last temp___1449))

;; "last'result'unused"
(define-fun lastqtresultqtunused () Int
  o11)

;; "o"
(define-fun o12 () Int
  (first temp___1449))

;; "first'result'unused"
(define-fun firstqtresultqtunused () Int
  o12)

;; "temp___1451"
(define-fun temp___1451 () us_t
  temp___1449)

;; "of_array'result'unused"
(define-fun of_arrayqtresultqtunused2 () us_t
  temp___1451)

(declare-const o13 Int)

;; "Ensures"
(assert (= (to_rep c__last) o13))

;; "to_rep'result'unused"
(define-fun to_repqtresultqtunused9 () Int
  o13)

(declare-const o14 Int)

;; "Ensures"
(assert (= (to_rep c__first) o14))

;; "to_rep'result'unused"
(define-fun to_repqtresultqtunused10 () Int
  o14)

;; "map__content'result'unused"
(define-fun map__contentqtresultqtunused2 () map1
  c)

;; "temp___1452"
(define-fun temp___1452 () us_t
  (of_array c o14 o13))

;; "of_array'result'unused"
(define-fun of_arrayqtresultqtunused3 () us_t
  temp___1452)

;; "Assert"
(assert
  (ite (<= (first temp___1451) (last temp___1451))
    (and
      (<= o14 o13)
      (= (- (last temp___1451) (first temp___1451)) (- o13 o14)))
    (< o13 o14)))

(declare-const o15 Int)

;; "Ensures"
(assert (= (to_rep c__first) o15))

;; "to_rep'result'unused"
(define-fun to_repqtresultqtunused11 () Int
  o15)

;; "o"
(define-fun o16 () Int
  (first temp___1451))

;; "first'result'unused"
(define-fun firstqtresultqtunused1 () Int
  o16)

;; "o"
(define-fun o17 () map1
  (to_array temp___1451))

;; "to_array'result'unused"
(define-fun to_arrayqtresultqtunused1 () map1
  o17)

;; "temp___1457"
(define-fun temp___1457 () map1
  (slide o17 o16 o15))

;; "slide'result'unused"
(define-fun slideqtresultqtunused () map1
  temp___1457)

(declare-const o18 Int)

;; "Ensures"
(assert (= (to_rep c__last) o18))

;; "to_rep'result'unused"
(define-fun to_repqtresultqtunused12 () Int
  o18)

(declare-const o19 Int)

;; "Ensures"
(assert (= (to_rep c__first) o19))

;; "to_rep'result'unused"
(define-fun to_repqtresultqtunused13 () Int
  o19)

;; "o"
(define-fun o20 () us_t
  (of_array temp___1457 o19 o18))

;; "of_array'result'unused"
(define-fun of_arrayqtresultqtunused4 () us_t
  o20)

;; "o"
(define-fun o21 () map1
  temp___1457)

;; "to_array'result'unused"
(define-fun to_arrayqtresultqtunused2 () map1
  o21)

(declare-const c1 map1)

;; "c'unused"
(define-fun cqtunused1 () map__ref
  (map__refqtmk c1))

;; "H"
(assert (= c1 o21))

;; "int__content'result'unused"
(define-fun int__contentqtresultqtunused () Int
  b1)

;; "o"
(define-fun o22 () Bool
  (ite (= b1 0) true false))

;; "infix ='result'unused"
(define-fun infix_eqqtresultqtunused () Bool
  o22)

(declare-const spark__branch Bool)

;; "spark__branch'unused"
(define-fun spark__branchqtunused () bool__ref
  (bool__refqtmk spark__branch))

;; "H"
(assert (= spark__branch o22))

;; "bool__content'result'unused"
(define-fun bool__contentqtresultqtunused () Bool
  spark__branch)

;; "H"
(assert (not (= spark__branch true)))

;; "o"
(define-fun o23 () Int
  (last1 full_block_count))

;; "last'result'unused"
(define-fun lastqtresultqtunused1 () Int
  o23)

;; "o"
(define-fun o24 () Int
  0)

;; "Ensures"
(assert (dynamic_property1 o24 o23 0))

;; "range_check_'result'unused"
(define-fun range_check_qtresultqtunused2 () Int
  0)

(declare-const offset1 Int)

;; "offset'unused"
(define-fun offsetqtunused1 () int__ref
  (int__refqtmk offset1))

;; "H"
(assert (= offset1 0))

(declare-const temp___1466 map1)

;; "H"
(assert (has_bounds temp___1466 0 15))

;; "H"
(assert
  (forall ((temp___1465 Int))
    (! (=>
         (and (<= 0 temp___1465) (<= temp___1465 15))
         (= (to_rep1 (get temp___1466 temp___1465)) #x00)) :pattern (
    (get
      temp___1466
      temp___1465)) )))

;; "H"
(assert (= temp___1466 (temp_____aggregate_def_1462 #x00)))

;; "temp_____aggregate_def_1462'result'unused"
(define-fun temp_____aggregate_def_1462qtresultqtunused () map1
  temp___1466)

(declare-const z1 map1)

;; "z'unused"
(define-fun zqtunused1 () map__ref
  (map__refqtmk z1))

;; "H"
(assert (= z1 temp___1466))

(declare-const usf map1)

;; "H"
(assert true)

;; "H"
(assert true)

;; "H"
(assert true)

;; "H"
(assert
  (forall ((temp___1473 Int))
    (ite (and (<= 0 temp___1473) (<= temp___1473 7))
      (= (get usf temp___1473) (get n temp___1473))
      (= (get usf temp___1473) (get z1 temp___1473)))))

;; "any'result'unused"
(define-fun anyqtresultqtunused () map1
  usf)

(declare-const z2 map1)

;; "z'unused"
(define-fun zqtunused2 () map__ref
  (map__refqtmk z2))

;; "H"
(assert (= z2 usf))

;; "int__content'result'unused"
(define-fun int__contentqtresultqtunused1 () Int
  b1)

;; "o"
(define-fun o25 () Bool
  (ite (<= 64 b1) true false))

;; "infix >='result'unused"
(define-fun infix_gteqqtresultqtunused () Bool
  o25)

(declare-const spark__branch1 Bool)

;; "spark__branch'unused"
(define-fun spark__branchqtunused1 () bool__ref
  (bool__refqtmk spark__branch1))

;; "H"
(assert (= spark__branch1 o25))

;; "bool__content'result'unused"
(define-fun bool__contentqtresultqtunused1 () Bool
  spark__branch1)

;; "H"
(assert (= spark__branch1 true))

;; "temp___loop_entry_1523'unused"
(define-fun temp___loop_entry_1523qtunused () Int
  b1)

;; "int__content'result'unused"
(define-fun int__contentqtresultqtunused2 () Int
  b1)

;; "temp___loop_entry_1522'unused"
(define-fun temp___loop_entry_1522qtunused () (_ BitVec 32)
  u)

;; "t__content'result'unused"
(define-fun t__contentqtresultqtunused () (_ BitVec 32)
  u)

;; "temp___loop_entry_1521'unused"
(define-fun temp___loop_entry_1521qtunused () map1
  x)

;; "map__content'result'unused"
(define-fun map__contentqtresultqtunused3 () map1
  x)

;; "temp___loop_entry_1518'unused"
(define-fun temp___loop_entry_1518qtunused () map1
  z2)

;; "map__content'result'unused"
(define-fun map__contentqtresultqtunused4 () map1
  z2)

;; "temp___loop_entry_1516'unused"
(define-fun temp___loop_entry_1516qtunused () Int
  offset1)

;; "int__content'result'unused"
(define-fun int__contentqtresultqtunused3 () Int
  offset1)

(declare-const o26 Int)

;; "Ensures"
(assert (= (to_rep c__last) o26))

;; "to_rep'result'unused"
(define-fun to_repqtresultqtunused14 () Int
  o26)

(declare-const o27 Int)

;; "Ensures"
(assert (= (to_rep c__first) o27))

;; "to_rep'result'unused"
(define-fun to_repqtresultqtunused15 () Int
  o27)

;; "map__content'result'unused"
(define-fun map__contentqtresultqtunused5 () map1
  c1)

;; "temp___loop_entry_1514'unused"
(define-fun temp___loop_entry_1514qtunused () us_t
  (of_array c1 o27 o26))

;; "of_array'result'unused"
(define-fun of_arrayqtresultqtunused5 () us_t
  (of_array c1 o27 o26))

(declare-const o28 Int)

;; "Ensures"
(assert (= (to_rep c__last) o28))

(declare-const to_repqtresultqtunused16 Int)

;; "H"
(assert (= to_repqtresultqtunused16 o28))

(declare-const o29 Int)

;; "Ensures"
(assert (= (to_rep c__first) o29))

(declare-const to_repqtresultqtunused17 Int)

;; "H"
(assert (= to_repqtresultqtunused17 o29))

(declare-const map__contentqtresultqtunused6 map1)

;; "H"
(assert (= map__contentqtresultqtunused6 c1))

(declare-const of_arrayqtresultqtunused6 us_t)

;; "H"
(assert (= of_arrayqtresultqtunused6 (of_array c1 o29 o28)))

(declare-const o30 Int)

;; "Ensures"
(assert (= (to_rep c__last) o30))

(declare-const to_repqtresultqtunused18 Int)

;; "H"
(assert (= to_repqtresultqtunused18 o30))

(declare-const o31 Int)

;; "Ensures"
(assert (= (to_rep c__first) o31))

(declare-const to_repqtresultqtunused19 Int)

;; "H"
(assert (= to_repqtresultqtunused19 o31))

(declare-const o32 Int)

;; "H"
(assert (= o32 (length o31 o30)))

(declare-const lengthqtresultqtunused1 Int)

;; "H"
(assert (= lengthqtresultqtunused1 o32))

;; "Ensures"
(assert (in_range3 o32))

(declare-const range_check_qtresultqtunused3 Int)

;; "H"
(assert (= range_check_qtresultqtunused3 o32))

(declare-const int__contentqtresultqtunused4 Int)

;; "H"
(assert (= int__contentqtresultqtunused4 offset1))

(declare-const int__contentqtresultqtunused5 Int)

;; "H"
(assert (= int__contentqtresultqtunused5 b1))

(declare-const o33 Int)

;; "H"
(assert (= o33 (+ b1 offset1)))

(declare-const infix_plqtresultqtunused Int)

;; "H"
(assert (= infix_plqtresultqtunused o33))

;; "Ensures"
(assert (in_range3 o33))

(declare-const range_check_qtresultqtunused4 Int)

;; "H"
(assert (= range_check_qtresultqtunused4 o33))

(declare-const infix_eqqtresultqtunused1 Bool)

;; "H"
(assert (= infix_eqqtresultqtunused1 (ite (= o33 o32) true false)))

(declare-const o34 Bool)

(declare-const int__contentqtresultqtunused6 Int)

(declare-const o35 Int)

(declare-const to_repqtresultqtunused20 Int)

(declare-const o36 Int)

(declare-const to_repqtresultqtunused21 Int)

(declare-const map__contentqtresultqtunused7 map1)

(declare-const of_arrayqtresultqtunused7 us_t)

(declare-const o37 Int)

(declare-const to_repqtresultqtunused22 Int)

(declare-const o38 Int)

(declare-const to_repqtresultqtunused23 Int)

(declare-const o39 Int)

(declare-const lengthqtresultqtunused2 Int)

(declare-const range_check_qtresultqtunused5 Int)

(declare-const o40 Int)

(declare-const infix_mnqtresultqtunused Int)

(declare-const int__contentqtresultqtunused7 Int)

(declare-const infix_lseqqtresultqtunused Bool)

;; "H"
(assert
  (ite (= o33 o32)
    (and
      (= int__contentqtresultqtunused6 b1)
      (and
        (= (to_rep c__last) o35)
        (and
          (= to_repqtresultqtunused20 o35)
          (and
            (= (to_rep c__first) o36)
            (and
              (= to_repqtresultqtunused21 o36)
              (and
                (= map__contentqtresultqtunused7 c1)
                (and
                  (= of_arrayqtresultqtunused7 (of_array c1 o36 o35))
                  (and
                    (= (to_rep c__last) o37)
                    (and
                      (= to_repqtresultqtunused22 o37)
                      (and
                        (= (to_rep c__first) o38)
                        (and
                          (= to_repqtresultqtunused23 o38)
                          (and
                            (= o39 (length o38 o37))
                            (and
                              (= lengthqtresultqtunused2 o39)
                              (and
                                (in_range3 o39)
                                (and
                                  (= range_check_qtresultqtunused5 o39)
                                  (and
                                    (= o40 (- o39 b1))
                                    (and
                                      (= infix_mnqtresultqtunused o40)
                                      (and
                                        (= int__contentqtresultqtunused7 
                                        offset1)
                                        (and
                                          (= o34 (ite (<= offset1 o40)
                                                   true
                                                   false))
                                          (= infix_lseqqtresultqtunused 
                                          o34))))))))))))))))))))
    (= o34 false)))

(declare-const o41 Int)

(declare-const to_repqtresultqtunused24 Int)

(declare-const o42 Int)

(declare-const to_repqtresultqtunused25 Int)

(declare-const map__contentqtresultqtunused8 map1)

(declare-const of_arrayqtresultqtunused8 us_t)

(declare-const o43 Int)

(declare-const to_repqtresultqtunused26 Int)

(declare-const o44 Int)

(declare-const infix_mnqtresultqtunused1 Int)

(declare-const int__contentqtresultqtunused8 Int)

(declare-const o45 Int)

(declare-const to_repqtresultqtunused27 Int)

(declare-const o46 Int)

(declare-const to_repqtresultqtunused28 Int)

(declare-const map__contentqtresultqtunused9 map1)

(declare-const of_arrayqtresultqtunused9 us_t)

(declare-const o47 Int)

(declare-const to_repqtresultqtunused29 Int)

(declare-const o48 Int)

(declare-const to_repqtresultqtunused30 Int)

(declare-const o49 Int)

(declare-const lengthqtresultqtunused3 Int)

(declare-const range_check_qtresultqtunused6 Int)

(declare-const o50 Int)

(declare-const infix_mnqtresultqtunused2 Int)

(declare-const infix_lseqqtresultqtunused1 Bool)

;; "H"
(assert
  (=>
    (= o34 true)
    (and
      (= (to_rep c__last) o41)
      (and
        (= to_repqtresultqtunused24 o41)
        (and
          (= (to_rep c__first) o42)
          (and
            (= to_repqtresultqtunused25 o42)
            (and
              (= map__contentqtresultqtunused8 c1)
              (and
                (= of_arrayqtresultqtunused8 (of_array c1 o42 o41))
                (and
                  (= (to_rep c__last) o43)
                  (and
                    (= to_repqtresultqtunused26 o43)
                    (and
                      (= o44 (- o43 63))
                      (and
                        (= infix_mnqtresultqtunused1 o44)
                        (and
                          (= int__contentqtresultqtunused8 b1)
                          (and
                            (= (to_rep c__last) o45)
                            (and
                              (= to_repqtresultqtunused27 o45)
                              (and
                                (= (to_rep c__first) o46)
                                (and
                                  (= to_repqtresultqtunused28 o46)
                                  (and
                                    (= map__contentqtresultqtunused9 
                                    c1)
                                    (and
                                      (= of_arrayqtresultqtunused9 (of_array
                                                                    c1
                                                                    o46
                                                                    o45))
                                      (and
                                        (= (to_rep c__last) o47)
                                        (and
                                          (= to_repqtresultqtunused29 
                                          o47)
                                          (and
                                            (= (to_rep c__first) o48)
                                            (and
                                              (= to_repqtresultqtunused30 
                                              o48)
                                              (and
                                                (= o49 (length o48 o47))
                                                (and
                                                  (= lengthqtresultqtunused3 
                                                  o49)
                                                  (and
                                                    (in_range3 o49)
                                                    (and
                                                      (= range_check_qtresultqtunused6 
                                                      o49)
                                                      (and
                                                        (= o50 (- o49 
                                                        b1))
                                                        (and
                                                          (= infix_mnqtresultqtunused2 
                                                          o50)
                                                          (= infix_lseqqtresultqtunused1 
                                                          (ite (<= o50 
                                                            o44)
                                                            true
                                                            false)))))))))))))))))))))))))))))))

(declare-const c2 map1)

(declare-const offset2 Int)

(declare-const z3 map1)

(declare-const x1 map1)

(declare-const u1 (_ BitVec 32))

(declare-const b2 Int)

;; "b'unused"
(define-fun bqtunused2 () int__ref
  (int__refqtmk b2))

;; "x'unused"
(define-fun xqtunused1 () map__ref
  (map__refqtmk x1))

;; "z'unused"
(define-fun zqtunused3 () map__ref
  (map__refqtmk z3))

;; "offset'unused"
(define-fun offsetqtunused2 () int__ref
  (int__refqtmk offset2))

;; "c'unused"
(define-fun cqtunused2 () map__ref
  (map__refqtmk c2))

;; "LoopInvariant"
(assert
  (and
    (and
      (= (+ b2 offset2) (length (to_rep c__first) (to_rep c__last)))
      (<= offset2 (- (length (to_rep c__first) (to_rep c__last)) b2)))
    (<= (- (length (to_rep c__first) (to_rep c__last)) b2) (- (to_rep
                                                                c__last) 63))))

;; "Assume"
(assert
  (and
    (and
      (and
        (and
          (well_formed (of_array c2 (to_rep c__first) (to_rep c__last)))
          (dynamic_invariant1 offset2 false true true true full_block_count))
        (has_bounds z3 0 15))
      (has_bounds x1 0 63))
    (in_range4 b2)))

;; "map__content'result'unused"
(define-fun map__contentqtresultqtunused10 () map1
  x1)

;; "map__content'result'unused"
(define-fun map__contentqtresultqtunused11 () map1
  z3)

(declare-const x2 map1)

;; "x'unused"
(define-fun xqtunused2 () map__ref
  (map__refqtmk x2))

;; "H"
(assert (has_bounds x2 0 63))

;; "H"
(assert true)

;; "H"
(assert true)

(declare-const i Int)

;; "i'unused"
(define-fun iqtunused () int__ref
  (int__refqtmk i))

;; "H"
(assert (= i 0))

;; "int__content'result'unused"
(define-fun int__contentqtresultqtunused9 () Int
  i)

;; "o"
(define-fun o51 () Bool
  (ite (<= i 63) true false))

;; "infix <='result'unused"
(define-fun infix_lseqqtresultqtunused2 () Bool
  o51)

;; "int__content'result'unused"
(define-fun int__contentqtresultqtunused10 () Int
  i)

;; "o"
(define-fun o52 () Bool
  (ite (<= 0 i) true false))

;; "infix <='result'unused"
(define-fun infix_lseqqtresultqtunused3 () Bool
  o52)

;; "o"
(define-fun o53 () Bool
  (and o52 o51))

;; "andb'result'unused"
(define-fun andbqtresultqtunused () Bool
  o53)

;; "H"
(assert (= o53 true))

(declare-const o54 Int)

;; "Ensures"
(assert (= (to_rep c__last) o54))

;; "to_rep'result'unused"
(define-fun to_repqtresultqtunused31 () Int
  o54)

(declare-const o55 Int)

;; "Ensures"
(assert (= (to_rep c__first) o55))

;; "to_rep'result'unused"
(define-fun to_repqtresultqtunused32 () Int
  o55)

;; "map__content'result'unused"
(define-fun map__contentqtresultqtunused12 () map1
  c2)

;; "temp___loop_entry_1485'unused"
(define-fun temp___loop_entry_1485qtunused () us_t
  (of_array c2 o55 o54))

;; "of_array'result'unused"
(define-fun of_arrayqtresultqtunused10 () us_t
  (of_array c2 o55 o54))

(declare-const o56 Bool)

(declare-const int__contentqtresultqtunused11 Int)

(declare-const int__contentqtresultqtunused12 Int)

(declare-const o57 Int)

(declare-const infix_plqtresultqtunused1 Int)

(declare-const range_check_qtresultqtunused7 Int)

(declare-const o58 Int)

(declare-const lastqtresultqtunused2 Int)

(declare-const o59 Bool)

(declare-const infix_lseqqtresultqtunused4 Bool)

(declare-const o60 Int)

(declare-const firstqtresultqtunused2 Int)

(declare-const o61 Bool)

(declare-const infix_lseqqtresultqtunused5 Bool)

(declare-const andbqtresultqtunused1 Bool)

;; "H"
(assert
  (ite (= xor_m true)
    (and
      (= int__contentqtresultqtunused11 i)
      (and
        (= int__contentqtresultqtunused12 offset2)
        (and
          (= o57 (+ offset2 i))
          (and
            (= infix_plqtresultqtunused1 o57)
            (and
              (in_range o57)
              (and
                (= range_check_qtresultqtunused7 o57)
                (and
                  (= o58 (last m))
                  (and
                    (= lastqtresultqtunused2 o58)
                    (and
                      (= o59 (ite (<= o57 o58) true false))
                      (and
                        (= infix_lseqqtresultqtunused4 o59)
                        (and
                          (= o60 (first m))
                          (and
                            (= firstqtresultqtunused2 o60)
                            (and
                              (= o61 (ite (<= o60 o57) true false))
                              (and
                                (= infix_lseqqtresultqtunused5 o61)
                                (and
                                  (= o56 (and o61 o59))
                                  (= andbqtresultqtunused1 o56))))))))))))))))
    (= o56 true)))

;; "int__content'result'unused"
(define-fun int__contentqtresultqtunused13 () Int
  i)

;; "int__content'result'unused"
(define-fun int__contentqtresultqtunused14 () Int
  offset2)

;; "o"
(define-fun o62 () Int
  (+ offset2 i))

;; "infix +'result'unused"
(define-fun infix_plqtresultqtunused2 () Int
  o62)

;; Goal "def'vc"
;; File "sparknacl-stream.adb", line 10, characters 0-0
(assert
  (not (<= (- 2147483648) o62)))

(check-sat)
